100
128
58
28
11
31
41
44
41
2
13
32
29
51
2
1
18
1
52
21
3
17
35
8
27
6
20
14
4
27
49
14
38
16
39
22
27
16
24
14
14
27
40
47
24
35
14
58
42
55
28
64
28
15
20
39
29
59
27
34
17
13
63
58
37
59
60
56
24
48
40
50
38
36
50
40
27
55
56
31
46
60
37
40
44
33
47
29
40
36
63
31
52
32
64
64
8
44
40
44
6
3